certificates/rado_a13_c232_N27.cnf
c Rad2 upper bound instance: x1 + 13*x2 - x3 = 232, interval [1,27]
p cnf 27 112
1 3 18 0
-1 -3 -18 0
1 16 19 0
-1 -16 -19 0
2 4 18 0
-2 -4 -18 0
2 17 19 0
-2 -17 -19 0
3 5 18 0
-3 -5 -18 0
3 18 19 0
-3 -18 -19 0
4 6 18 0
-4 -6 -18 0
4 19 0
-4 -19 0
5 7 18 0
-5 -7 -18 0
5 19 20 0
-5 -19 -20 0
6 8 18 0
-6 -8 -18 0
6 19 21 0
-6 -19 -21 0
7 9 18 0
-7 -9 -18 0
7 19 22 0
-7 -19 -22 0
8 10 18 0
-8 -10 -18 0
8 19 23 0
-8 -19 -23 0
9 11 18 0
-9 -11 -18 0
9 19 24 0
-9 -19 -24 0
10 12 18 0
-10 -12 -18 0
10 19 25 0
-10 -19 -25 0
11 13 18 0
-11 -13 -18 0
11 19 26 0
-11 -19 -26 0
1 12 17 0
-1 -12 -17 0
12 14 18 0
-12 -14 -18 0
12 19 27 0
-12 -19 -27 0
2 13 17 0
-2 -13 -17 0
13 15 18 0
-13 -15 -18 0
3 14 17 0
-3 -14 -17 0
14 16 18 0
-14 -16 -18 0
4 15 17 0
-4 -15 -17 0
15 17 18 0
-15 -17 -18 0
5 16 17 0
-5 -16 -17 0
16 18 0
-16 -18 0
6 17 0
-6 -17 0
17 18 19 0
-17 -18 -19 0
7 17 18 0
-7 -17 -18 0
18 20 0
-18 -20 0
8 17 19 0
-8 -17 -19 0
18 19 21 0
-18 -19 -21 0
9 17 20 0
-9 -17 -20 0
18 20 22 0
-18 -20 -22 0
10 17 21 0
-10 -17 -21 0
18 21 23 0
-18 -21 -23 0
11 17 22 0
-11 -17 -22 0
18 22 24 0
-18 -22 -24 0
12 17 23 0
-12 -17 -23 0
18 23 25 0
-18 -23 -25 0
13 17 24 0
-13 -17 -24 0
18 24 26 0
-18 -24 -26 0
1 16 25 0
-1 -16 -25 0
14 17 25 0
-14 -17 -25 0
18 25 27 0
-18 -25 -27 0
2 16 26 0
-2 -16 -26 0
15 17 26 0
-15 -17 -26 0
3 16 27 0
-3 -16 -27 0
16 17 27 0
-16 -17 -27 0
