certificates/rado_a13_c232_N27.drat
-25 -27 0
d -25 -18 -27 0
18 -26 -27 0
-19 24 -18 0
-26 -27 0
d 18 -26 -27 0
-18 26 0
-27 0
-19 18 0
18 0
-16 0
-20 0
26 0
3 0
17 0
-24 0
-1 0
-5 0
-19 0
-15 0
-6 0
-7 0
-14 0
9 0
25 0
0
